letting n =  10
letting blocks =  [[1, 2], [1, 3], [1, 4], [1, 5], [1, 7], [1, 9], [2, 1], [2, 2], [2, 6], [2, 7], [2, 9], [2, 10], [3, 3], [3, 5], [3, 7], [3, 8], [3, 10], [4, 1], [4, 2], [4, 4], [4, 8], [4, 9], [4, 10], [5, 2], [5, 3], [5, 4], [5, 5], [5, 6], [5, 9], [6, 1], [6, 3], [6, 4], [6, 5], [6, 8], [6, 9], [7, 1], [7, 3], [7, 4], [7, 6], [7, 7], [7, 8], [8, 1], [8, 2], [8, 3], [8, 6], [8, 7], [8, 8], [9, 1], [9, 2], [9, 5], [9, 6], [9, 9], [9, 10], [10, 4], [10, 5], [10, 6], [10, 7], [10, 10]]
